15545397234096.0
16670939571384.0
15916649343389.0
15204626895425.0
15848681147320.0
16150669063055.0
14994956758691.0
15181512054957.0
14290789455553.0
15073247051984.0
15802876024336.0
15749320502160.0
15695732683332.0
14561975663640.0
16755888175417.0
15490188746820.0
14457546843170.0
15519862394778.0
15681512714658.0
15822707403757.0
14898718653291.0
15687426258268.0
15520966826579.0
15634477488836.0
16382709260328.0
16713370158094.0
14710440384837.0
15472047339344.0
16644488811042.0
14743078435414.0
